Instancias/Instancias_pequeñas/instance8C.dat
8 

0 11 75 60 92 82 48 61 
94 0 23 35 6 74 85 65 
90 52 0 25 80 51 37 32 
73 25 21 0 15 54 19 9 
24 17 55 26 0 61 70 25 
1 36 80 33 17 0 94 51 
36 9 80 53 33 97 0 68 
96 27 28 80 67 72 83 0 

0 29 58 1 35 72 77 78 
92 0 85 74 74 66 18 52 
12 24 0 57 36 14 96 24 
70 6 16 0 10 35 25 98 
41 99 5 13 0 73 83 34 
43 18 56 31 10 0 76 58 
10 95 89 53 41 61 0 36 
16 72 80 91 30 87 28 0 
