Soluciones/instance8C.out
116224 0.061375
8
1 2 3 7 6 4 0 5 